data/cvrplib_xml100/instances/XML200_3315_01.vrp
NAME : XML200_3315_01
COMMENT : Generated as the XML100 dataset from the CVRPLIB
TYPE : CVRP
DIMENSION : 201
EDGE_WEIGHT_TYPE : EUC_2D
CAPACITY : 21
NODE_COORD_SECTION
1    0    0   
2    576  801 
3    520  110 
4    890  373 
5    520  781 
6    92   817 
7    499  29  
8    638  450 
9    524  486 
10   541  331 
11   333  518 
12   64   261 
13   523  436 
14   592  403 
15   483  667 
16   239  497 
17   821  782 
18   247  881 
19   975  867 
20   449  592 
21   564  788 
22   518  380 
23   237  964 
24   449  868 
25   248  761 
26   445  312 
27   603  873 
28   738  996 
29   432  519 
30   583  471 
31   665  554 
32   30   480 
33   533  860 
34   402  379 
35   426  857 
36   536  836 
37   466  871 
38   629  607 
39   552  456 
40   518  465 
41   583  567 
42   914  855 
43   495  375 
44   340  803 
45   644  741 
46   340  917 
47   542  419 
48   521  630 
49   499  834 
50   712  456 
51   424  680 
52   496  832 
53   225  960 
54   743  29  
55   234  747 
56   486  828 
57   22   26  
58   35   491 
59   907  960 
60   467  441 
61   690  755 
62   222  964 
63   526  823 
64   628  686 
65   5    392 
66   797  167 
67   561  903 
68   720  868 
69   461  89  
70   534  369 
71   152  976 
72   517  402 
73   272  738 
74   105  854 
75   189  971 
76   272  859 
77   880  303 
78   177  375 
79   686  194 
80   605  967 
81   194  914 
82   218  931 
83   220  918 
84   662  174 
85   532  809 
86   840  977 
87   491  824 
88   104  923 
89   948  22  
90   408  636 
91   580  772 
92   938  569 
93   980  746 
94   866  963 
95   117  902 
96   428  567 
97   216  990 
98   436  972 
99   497  371 
100  44   315 
101  123  760 
102  598  492 
103  225  912 
104  580  270 
105  547  947 
106  432  335 
107  449  679 
108  491  283 
109  384  599 
110  561  623 
111  880  561 
112  470  931 
113  310  290 
114  828  132 
115  353  236 
116  432  355 
117  702  221 
118  785  2   
119  802  877 
120  355  787 
121  944  657 
122  172  514 
123  309  601 
124  325  31  
125  513  822 
126  9    961 
127  232  12  
128  452  837 
129  758  524 
130  961  507 
131  816  413 
132  603  441 
133  102  190 
134  622  780 
135  275  675 
136  580  739 
137  958  990 
138  591  361 
139  479  441 
140  728  512 
141  719  794 
142  399  443 
143  388  807 
144  516  423 
145  168  931 
146  551  559 
147  278  987 
148  597  513 
149  349  927 
150  383  88  
151  903  511 
152  237  414 
153  228  962 
154  574  210 
155  214  96  
156  501  750 
157  260  742 
158  693  224 
159  902  390 
160  601  996 
161  608  474 
162  57   492 
163  491  918 
164  74   847 
165  224  966 
166  992  432 
167  61   802 
168  130  908 
169  324  598 
170  779  460 
171  552  942 
172  460  834 
173  551  396 
174  522  815 
175  506  511 
176  821  234 
177  975  296 
178  526  352 
179  534  992 
180  204  963 
181  531  796 
182  423  474 
183  29   895 
184  528  341 
185  782  448 
186  523  690 
187  425  858 
188  131  994 
189  523  932 
190  604  432 
191  120  507 
192  464  771 
193  464  840 
194  540  227 
195  566  238 
196  779  470 
197  473  852 
198  130  793 
199  789  204 
200  431  815 
201  849  932 
DEMAND_SECTION
1    0   
2    1   
3    1   
4    1   
5    1   
6    1   
7    1   
8    1   
9    1   
10   1   
11   1   
12   1   
13   1   
14   1   
15   1   
16   1   
17   1   
18   1   
19   1   
20   1   
21   1   
22   1   
23   1   
24   1   
25   1   
26   1   
27   1   
28   1   
29   1   
30   1   
31   1   
32   1   
33   1   
34   1   
35   1   
36   1   
37   1   
38   1   
39   1   
40   1   
41   1   
42   1   
43   1   
44   1   
45   1   
46   1   
47   1   
48   1   
49   1   
50   1   
51   1   
52   1   
53   1   
54   1   
55   1   
56   1   
57   1   
58   1   
59   1   
60   1   
61   1   
62   1   
63   1   
64   1   
65   1   
66   1   
67   1   
68   1   
69   1   
70   1   
71   1   
72   1   
73   1   
74   1   
75   1   
76   1   
77   1   
78   1   
79   1   
80   1   
81   1   
82   1   
83   1   
84   1   
85   1   
86   1   
87   1   
88   1   
89   1   
90   1   
91   1   
92   1   
93   1   
94   1   
95   1   
96   1   
97   1   
98   1   
99   1   
100  1   
101  1   
102  1   
103  1   
104  1   
105  1   
106  1   
107  1   
108  1   
109  1   
110  1   
111  1   
112  1   
113  1   
114  1   
115  1   
116  1   
117  1   
118  1   
119  1   
120  1   
121  1   
122  1   
123  1   
124  1   
125  1   
126  1   
127  1   
128  1   
129  1   
130  1   
131  1   
132  1   
133  1   
134  1   
135  1   
136  1   
137  1   
138  1   
139  1   
140  1   
141  1   
142  1   
143  1   
144  1   
145  1   
146  1   
147  1   
148  1   
149  1   
150  1   
151  1   
152  1   
153  1   
154  1   
155  1   
156  1   
157  1   
158  1   
159  1   
160  1   
161  1   
162  1   
163  1   
164  1   
165  1   
166  1   
167  1   
168  1   
169  1   
170  1   
171  1   
172  1   
173  1   
174  1   
175  1   
176  1   
177  1   
178  1   
179  1   
180  1   
181  1   
182  1   
183  1   
184  1   
185  1   
186  1   
187  1   
188  1   
189  1   
190  1   
191  1   
192  1   
193  1   
194  1   
195  1   
196  1   
197  1   
198  1   
199  1   
200  1   
201  1   
DEPOT_SECTION
1
-1
EOF
