data/cvrplib_xml100/solutions/XML200_3315_01.sol
Route #1: 107 137 49 139 128 195 169 184 130 158 3 76 175 113 65 198 116 157 78 83 6
Route #2: 154 114 25 105 115 42 98 21 69 177 183 9 103 194 193 153 2 68 149 123 126
Route #3: 53 117 88 176 165 129 150 110 91 120 92 41 18 136 58 93 85 200 118 16 30
Route #4: 141 59 138 39 8 38 29 147 101 160 7 131 189 13 172 46 12 143 71 33 112
Route #5: 95 19 14 185 135 90 20 1 62 35 32 66 26 133 44 63 37 40 145 174 181
Route #6: 28 47 109 60 140 67 27 79 159 178 104 170 188 162 111 97 36 23 34 186 142
Route #7: 10 108 89 106 155 4 180 84 173 124 48 51 86 55 196 192 171 127 199 191 50
Route #8: 100 197 5 73 94 87 167 144 80 81 82 102 17 75 24 54 156 72 134 15 151
Route #9: 122 168 119 43 45 148 146 22 152 52 61 164 96 179 74 70 187 125 182 163 166
Route #10: 11 99 64 31 57 161 190 121 77 132 56
Cost 22508
